(set-logic ALL)

; Normalized Portuguese Bank Dataset
; Column-slice encoding
; Numeric column: duration (index 11)

(define-fun m () Int 600)
(define-fun n () Int 1)

(declare-const O (Array Int Real))

(assert (= (select O 0) -0.744953))
(assert (= (select O 1) -0.853274))
(assert (= (select O 2) -0.927129))
(assert (= (select O 3) -0.911374))
(assert (= (select O 4) -0.806992))
(assert (= (select O 5) -0.865091))
(assert (= (select O 6) -0.788282))
(assert (= (select O 7) -0.627770))
(assert (= (select O 8) -0.952733))
(assert (= (select O 9) -0.947809))
(assert (= (select O 10) -0.783358))
(assert (= (select O 11) -0.867061))
(assert (= (select O 12) -0.492861))
(assert (= (select O 13) -0.932053))
(assert (= (select O 14) -0.830625))
(assert (= (select O 15) -0.654357))
(assert (= (select O 16) -0.905465))
(assert (= (select O 17) -0.964549))
(assert (= (select O 18) -0.786312))
(assert (= (select O 19) -0.948794))
(assert (= (select O 20) -0.743968))
(assert (= (select O 21) -0.840473))
(assert (= (select O 22) -0.844412))
(assert (= (select O 23) -0.665190))
(assert (= (select O 24) -0.823732))
(assert (= (select O 25) -0.832595))
(assert (= (select O 26) -0.710487))
(assert (= (select O 27) -0.876908))
(assert (= (select O 28) -0.750862))
(assert (= (select O 29) -0.659281))
(assert (= (select O 30) -0.780404))
(assert (= (select O 31) -0.775480))
(assert (= (select O 32) -0.797144))
(assert (= (select O 33) -0.779419))
(assert (= (select O 34) -0.671098))
(assert (= (select O 35) -0.763663))
(assert (= (select O 36) -0.642541))
(assert (= (select O 37) 0.638602))
(assert (= (select O 38) -0.433776))
(assert (= (select O 39) -0.867061))
(assert (= (select O 40) -0.844412))
(assert (= (select O 41) -0.824717))
(assert (= (select O 42) -0.980305))
(assert (= (select O 43) 0.467258))
(assert (= (select O 44) -0.395372))
(assert (= (select O 45) -0.763663))
(assert (= (select O 46) -0.652388))
(assert (= (select O 47) -0.780404))
(assert (= (select O 48) -0.844412))
(assert (= (select O 49) -0.644510))
(assert (= (select O 50) -0.740030))
(assert (= (select O 51) -0.752831))
(assert (= (select O 52) -0.825702))
(assert (= (select O 53) -0.226982))
(assert (= (select O 54) -0.859183))
(assert (= (select O 55) -0.830625))
(assert (= (select O 56) -0.899557))
(assert (= (select O 57) -0.989168))
(assert (= (select O 58) -0.819793))
(assert (= (select O 59) 0.748892))
(assert (= (select O 60) -0.866076))
(assert (= (select O 61) -0.202363))
(assert (= (select O 62) -0.840473))
(assert (= (select O 63) -0.616937))
(assert (= (select O 64) -0.650419))
(assert (= (select O 65) -0.912358))
(assert (= (select O 66) -0.482029))
(assert (= (select O 67) -0.733136))
(assert (= (select O 68) -0.846381))
(assert (= (select O 69) -0.827671))
(assert (= (select O 70) -0.747907))
(assert (= (select O 71) -0.832595))
(assert (= (select O 72) -0.850320))
(assert (= (select O 73) -0.715411))
(assert (= (select O 74) -0.823732))
(assert (= (select O 75) -0.828656))
(assert (= (select O 76) -0.794190))
(assert (= (select O 77) -0.658296))
(assert (= (select O 78) -0.734121))
(assert (= (select O 79) -0.797144))
(assert (= (select O 80) -0.811915))
(assert (= (select O 81) -0.793205))
(assert (= (select O 82) -0.982275))
(assert (= (select O 83) 0.024126))
(assert (= (select O 84) -0.759724))
(assert (= (select O 85) -0.481044))
(assert (= (select O 86) 0.442639))
(assert (= (select O 87) 0.365830))
(assert (= (select O 88) -0.816839))
(assert (= (select O 89) -0.824717))
(assert (= (select O 90) -0.954702))
(assert (= (select O 91) -0.792221))
(assert (= (select O 92) -0.427868))
(assert (= (select O 93) -0.784343))
(assert (= (select O 94) -0.831610))
(assert (= (select O 95) -0.582472))
(assert (= (select O 96) -0.719350))
(assert (= (select O 97) -0.902511))
(assert (= (select O 98) -0.802068))
(assert (= (select O 99) -0.807976))
(assert (= (select O 100) -0.748892))
(assert (= (select O 101) -0.879862))
(assert (= (select O 102) -0.776465))
(assert (= (select O 103) -0.947809))
(assert (= (select O 104) -0.608075))
(assert (= (select O 105) -0.807976))
(assert (= (select O 106) -0.814870))
(assert (= (select O 107) -0.981290))
(assert (= (select O 108) -0.495815))
(assert (= (select O 109) -0.165928))
(assert (= (select O 110) -0.810931))
(assert (= (select O 111) -0.860167))
(assert (= (select O 112) -0.793205))
(assert (= (select O 113) -0.720335))
(assert (= (select O 114) -0.896603))
(assert (= (select O 115) -0.758740))
(assert (= (select O 116) -0.491876))
(assert (= (select O 117) -0.643525))
(assert (= (select O 118) -0.826686))
(assert (= (select O 119) -0.905465))
(assert (= (select O 120) -0.569670))
(assert (= (select O 121) -0.924175))
(assert (= (select O 122) -0.883801))
(assert (= (select O 123) -0.876908))
(assert (= (select O 124) -0.829641))
(assert (= (select O 125) -0.743968))
(assert (= (select O 126) -0.941901))
(assert (= (select O 127) -0.925160))
(assert (= (select O 128) -0.861152))
(assert (= (select O 129) -0.431807))
(assert (= (select O 130) -0.335303))
(assert (= (select O 131) -0.662235))
(assert (= (select O 132) -0.819793))
(assert (= (select O 133) -0.903496))
(assert (= (select O 134) -0.878877))
(assert (= (select O 135) -0.811915))
(assert (= (select O 136) -0.868045))
(assert (= (select O 137) -0.930084))
(assert (= (select O 138) -0.482029))
(assert (= (select O 139) -0.469227))
(assert (= (select O 140) -0.841457))
(assert (= (select O 141) -0.705564))
(assert (= (select O 142) -0.956672))
(assert (= (select O 143) -0.801083))
(assert (= (select O 144) -0.905465))
(assert (= (select O 145) -0.932053))
(assert (= (select O 146) -0.847366))
(assert (= (select O 147) -0.762678))
(assert (= (select O 148) -0.818808))
(assert (= (select O 149) -0.431807))
(assert (= (select O 150) -0.841457))
(assert (= (select O 151) -0.401280))
(assert (= (select O 152) 1.000000))
(assert (= (select O 153) -0.918267))
(assert (= (select O 154) -0.889710))
(assert (= (select O 155) -0.889710))
(assert (= (select O 156) -0.945839))
(assert (= (select O 157) -0.767602))
(assert (= (select O 158) -0.910389))
(assert (= (select O 159) -0.875923))
(assert (= (select O 160) -0.896603))
(assert (= (select O 161) -0.823732))
(assert (= (select O 162) -0.703594))
(assert (= (select O 163) -0.452486))
(assert (= (select O 164) -0.736091))
(assert (= (select O 165) -0.777450))
(assert (= (select O 166) -0.904481))
(assert (= (select O 167) -0.765633))
(assert (= (select O 168) -0.339242))
(assert (= (select O 169) -0.772526))
(assert (= (select O 170) 0.037912))
(assert (= (select O 171) -0.755785))
(assert (= (select O 172) -0.753816))
(assert (= (select O 173) -0.866076))
(assert (= (select O 174) -0.873954))
(assert (= (select O 175) -0.596258))
(assert (= (select O 176) -0.825702))
(assert (= (select O 177) -0.983259))
(assert (= (select O 178) -0.550960))
(assert (= (select O 179) -0.295913))
(assert (= (select O 180) -0.693747))
(assert (= (select O 181) -0.329394))
(assert (= (select O 182) 0.058592))
(assert (= (select O 183) -0.592319))
(assert (= (select O 184) -0.858198))
(assert (= (select O 185) -0.837518))
(assert (= (select O 186) -0.691777))
(assert (= (select O 187) -0.864106))
(assert (= (select O 188) -0.661251))
(assert (= (select O 189) -0.448548))
(assert (= (select O 190) -0.832595))
(assert (= (select O 191) -0.788282))
(assert (= (select O 192) -0.862137))
(assert (= (select O 193) -0.935992))
(assert (= (select O 194) -0.715411))
(assert (= (select O 195) -0.697686))
(assert (= (select O 196) -0.757755))
(assert (= (select O 197) -0.905465))
(assert (= (select O 198) -0.749877))
(assert (= (select O 199) -0.921221))
(assert (= (select O 200) -0.433776))
(assert (= (select O 201) -0.720335))
(assert (= (select O 202) -0.532250))
(assert (= (select O 203) -0.400295))
(assert (= (select O 204) -0.538159))
(assert (= (select O 205) -0.626785))
(assert (= (select O 206) -0.960611))
(assert (= (select O 207) -0.754801))
(assert (= (select O 208) -0.600197))
(assert (= (select O 209) -0.790251))
(assert (= (select O 210) -0.719350))
(assert (= (select O 211) -0.789266))
(assert (= (select O 212) -0.641556))
(assert (= (select O 213) -0.795175))
(assert (= (select O 214) -0.718365))
(assert (= (select O 215) -0.836534))
(assert (= (select O 216) -0.669129))
(assert (= (select O 217) -0.598227))
(assert (= (select O 218) -0.827671))
(assert (= (select O 219) -0.876908))
(assert (= (select O 220) -0.650419))
(assert (= (select O 221) -0.829641))
(assert (= (select O 222) -0.706548))
(assert (= (select O 223) -0.868045))
(assert (= (select O 224) 0.395372))
(assert (= (select O 225) -0.878877))
(assert (= (select O 226) -0.792221))
(assert (= (select O 227) -0.975382))
(assert (= (select O 228) -0.767602))
(assert (= (select O 229) -0.879862))
(assert (= (select O 230) -0.984244))
(assert (= (select O 231) -0.283112))
(assert (= (select O 232) -0.267356))
(assert (= (select O 233) -0.882816))
(assert (= (select O 234) -0.758740))
(assert (= (select O 235) -0.962580))
(assert (= (select O 236) -0.823732))
(assert (= (select O 237) -0.924175))
(assert (= (select O 238) -0.799114))
(assert (= (select O 239) -0.618907))
(assert (= (select O 240) -0.876908))
(assert (= (select O 241) -0.310684))
(assert (= (select O 242) -0.853274))
(assert (= (select O 243) -0.886755))
(assert (= (select O 244) -0.773511))
(assert (= (select O 245) -0.600197))
(assert (= (select O 246) -0.825702))
(assert (= (select O 247) -0.963565))
(assert (= (select O 248) -0.724274))
(assert (= (select O 249) -0.298868))
(assert (= (select O 250) -0.952733))
(assert (= (select O 251) -0.823732))
(assert (= (select O 252) -0.862137))
(assert (= (select O 253) -0.778434))
(assert (= (select O 254) -0.884786))
(assert (= (select O 255) -0.646480))
(assert (= (select O 256) -0.930084))
(assert (= (select O 257) -0.935992))
(assert (= (select O 258) -0.657312))
(assert (= (select O 259) -0.675037))
(assert (= (select O 260) -0.400295))
(assert (= (select O 261) -0.890694))
(assert (= (select O 262) -0.871984))
(assert (= (select O 263) -0.944855))
(assert (= (select O 264) -0.853274))
(assert (= (select O 265) -0.914328))
(assert (= (select O 266) -0.852290))
(assert (= (select O 267) -0.400295))
(assert (= (select O 268) -0.893648))
(assert (= (select O 269) -0.546036))
(assert (= (select O 270) -0.448548))
(assert (= (select O 271) -0.054653))
(assert (= (select O 272) -0.992122))
(assert (= (select O 273) -0.885771))
(assert (= (select O 274) -0.911374))
(assert (= (select O 275) -0.861152))
(assert (= (select O 276) -0.815854))
(assert (= (select O 277) -0.771541))
(assert (= (select O 278) -0.928114))
(assert (= (select O 279) -0.815854))
(assert (= (select O 280) -0.390448))
(assert (= (select O 281) -0.947809))
(assert (= (select O 282) -0.696701))
(assert (= (select O 283) -0.848351))
(assert (= (select O 284) -0.997046))
(assert (= (select O 285) -0.780404))
(assert (= (select O 286) -0.878877))
(assert (= (select O 287) -1.000000))
(assert (= (select O 288) -0.720335))
(assert (= (select O 289) -0.840473))
(assert (= (select O 290) -0.905465))
(assert (= (select O 291) -0.271295))
(assert (= (select O 292) -0.779419))
(assert (= (select O 293) -0.883801))
(assert (= (select O 294) -0.645495))
(assert (= (select O 295) -0.650419))
(assert (= (select O 296) -0.805022))
(assert (= (select O 297) -0.801083))
(assert (= (select O 298) -0.877893))
(assert (= (select O 299) -0.937962))
(assert (= (select O 300) -0.896603))
(assert (= (select O 301) -0.739045))
(assert (= (select O 302) -0.757755))
(assert (= (select O 303) -0.790251))
(assert (= (select O 304) -0.796160))
(assert (= (select O 305) -0.800098))
(assert (= (select O 306) -0.920236))
(assert (= (select O 307) -0.897587))
(assert (= (select O 308) -0.815854))
(assert (= (select O 309) -0.898572))
(assert (= (select O 310) -0.897587))
(assert (= (select O 311) -0.895618))
(assert (= (select O 312) -0.695716))
(assert (= (select O 313) -0.791236))
(assert (= (select O 314) -0.871984))
(assert (= (select O 315) -0.649434))
(assert (= (select O 316) -0.555884))
(assert (= (select O 317) -0.643525))
(assert (= (select O 318) -0.868045))
(assert (= (select O 319) -0.621861))
(assert (= (select O 320) -0.831610))
(assert (= (select O 321) -0.764648))
(assert (= (select O 322) -0.781388))
(assert (= (select O 323) -0.856228))
(assert (= (select O 324) -0.808961))
(assert (= (select O 325) -0.892664))
(assert (= (select O 326) -0.774495))
(assert (= (select O 327) -0.690793))
(assert (= (select O 328) -0.789266))
(assert (= (select O 329) -0.765633))
(assert (= (select O 330) -0.343181))
(assert (= (select O 331) -0.583456))
(assert (= (select O 332) -0.861152))
(assert (= (select O 333) -0.830625))
(assert (= (select O 334) -0.693747))
(assert (= (select O 335) -0.869030))
(assert (= (select O 336) -0.858198))
(assert (= (select O 337) -0.852290))
(assert (= (select O 338) -0.606105))
(assert (= (select O 339) -0.792221))
(assert (= (select O 340) -0.860167))
(assert (= (select O 341) -0.879862))
(assert (= (select O 342) -0.821763))
(assert (= (select O 343) -0.681930))
(assert (= (select O 344) -0.963565))
(assert (= (select O 345) -0.506647))
(assert (= (select O 346) -0.908419))
(assert (= (select O 347) -0.332349))
(assert (= (select O 348) -0.587395))
(assert (= (select O 349) -0.830625))
(assert (= (select O 350) -0.890694))
(assert (= (select O 351) -0.206302))
(assert (= (select O 352) -0.806992))
(assert (= (select O 353) -0.809946))
(assert (= (select O 354) -0.660266))
(assert (= (select O 355) -0.797144))
(assert (= (select O 356) -0.604136))
(assert (= (select O 357) -0.612014))
(assert (= (select O 358) -0.789266))
(assert (= (select O 359) -0.905465))
(assert (= (select O 360) -0.657312))
(assert (= (select O 361) -0.889710))
(assert (= (select O 362) -0.915313))
(assert (= (select O 363) -0.628754))
(assert (= (select O 364) -0.814870))
(assert (= (select O 365) -0.846381))
(assert (= (select O 366) -0.901526))
(assert (= (select O 367) -0.700640))
(assert (= (select O 368) -0.787297))
(assert (= (select O 369) -0.948794))
(assert (= (select O 370) -0.663220))
(assert (= (select O 371) -0.809946))
(assert (= (select O 372) -0.359921))
(assert (= (select O 373) -0.720335))
(assert (= (select O 374) -0.815854))
(assert (= (select O 375) -0.920236))
(assert (= (select O 376) -0.820778))
(assert (= (select O 377) -0.770556))
(assert (= (select O 378) -0.716396))
(assert (= (select O 379) -0.773511))
(assert (= (select O 380) -0.871000))
(assert (= (select O 381) -0.688823))
(assert (= (select O 382) -0.745938))
(assert (= (select O 383) -0.571640))
(assert (= (select O 384) -0.606105))
(assert (= (select O 385) -0.918267))
(assert (= (select O 386) -0.878877))
(assert (= (select O 387) -0.508616))
(assert (= (select O 388) 0.180699))
(assert (= (select O 389) -0.752831))
(assert (= (select O 390) 0.012309))
(assert (= (select O 391) -0.855244))
(assert (= (select O 392) -0.889710))
(assert (= (select O 393) -0.762678))
(assert (= (select O 394) -0.244707))
(assert (= (select O 395) -0.869030))
(assert (= (select O 396) -0.774495))
(assert (= (select O 397) -0.927129))
(assert (= (select O 398) -0.806007))
(assert (= (select O 399) -0.852290))
(assert (= (select O 400) -0.879862))
(assert (= (select O 401) -0.584441))
(assert (= (select O 402) -0.959626))
(assert (= (select O 403) -0.850320))
(assert (= (select O 404) -0.802068))
(assert (= (select O 405) -0.680945))
(assert (= (select O 406) -0.614968))
(assert (= (select O 407) -0.764648))
(assert (= (select O 408) -0.526342))
(assert (= (select O 409) -0.746923))
(assert (= (select O 410) -0.778434))
(assert (= (select O 411) -0.339242))
(assert (= (select O 412) -0.434761))
(assert (= (select O 413) -0.824717))
(assert (= (select O 414) -0.836534))
(assert (= (select O 415) -0.913343))
(assert (= (select O 416) -0.504677))
(assert (= (select O 417) -0.760709))
(assert (= (select O 418) -0.818808))
(assert (= (select O 419) -0.388479))
(assert (= (select O 420) -0.513540))
(assert (= (select O 421) -0.885771))
(assert (= (select O 422) -0.665190))
(assert (= (select O 423) -0.780404))
(assert (= (select O 424) -0.819793))
(assert (= (select O 425) -0.808961))
(assert (= (select O 426) -0.730182))
(assert (= (select O 427) -0.927129))
(assert (= (select O 428) -0.916297))
(assert (= (select O 429) -0.809946))
(assert (= (select O 430) -0.269325))
(assert (= (select O 431) -0.248646))
(assert (= (select O 432) -0.743968))
(assert (= (select O 433) -0.884786))
(assert (= (select O 434) -0.806992))
(assert (= (select O 435) -0.854259))
(assert (= (select O 436) -0.764648))
(assert (= (select O 437) -0.823732))
(assert (= (select O 438) -0.808961))
(assert (= (select O 439) -0.855244))
(assert (= (select O 440) -0.759724))
(assert (= (select O 441) -0.891679))
(assert (= (select O 442) -0.697686))
(assert (= (select O 443) -0.728213))
(assert (= (select O 444) -0.864106))
(assert (= (select O 445) -0.868045))
(assert (= (select O 446) 0.596258))
(assert (= (select O 447) -0.902511))
(assert (= (select O 448) -0.860167))
(assert (= (select O 449) -0.767602))
(assert (= (select O 450) -0.653373))
(assert (= (select O 451) -0.924175))
(assert (= (select O 452) -0.817824))
(assert (= (select O 453) -0.557853))
(assert (= (select O 454) -0.845396))
(assert (= (select O 455) -0.599212))
(assert (= (select O 456) -0.834564))
(assert (= (select O 457) -0.403250))
(assert (= (select O 458) -0.762678))
(assert (= (select O 459) -0.859183))
(assert (= (select O 460) -0.891679))
(assert (= (select O 461) -0.743968))
(assert (= (select O 462) -0.879862))
(assert (= (select O 463) -0.949778))
(assert (= (select O 464) -0.870015))
(assert (= (select O 465) -0.801083))
(assert (= (select O 466) -0.818808))
(assert (= (select O 467) -0.334318))
(assert (= (select O 468) -0.822747))
(assert (= (select O 469) -0.842442))
(assert (= (select O 470) -0.975382))
(assert (= (select O 471) -0.313639))
(assert (= (select O 472) -0.959626))
(assert (= (select O 473) -0.906450))
(assert (= (select O 474) 0.649434))
(assert (= (select O 475) -0.723289))
(assert (= (select O 476) -0.683900))
(assert (= (select O 477) -0.921221))
(assert (= (select O 478) -0.696701))
(assert (= (select O 479) -0.819793))
(assert (= (select O 480) -0.955687))
(assert (= (select O 481) -0.859183))
(assert (= (select O 482) -0.801083))
(assert (= (select O 483) -0.817824))
(assert (= (select O 484) -0.972427))
(assert (= (select O 485) -0.537174))
(assert (= (select O 486) -0.560807))
(assert (= (select O 487) -0.741999))
(assert (= (select O 488) -0.835549))
(assert (= (select O 489) -0.718365))
(assert (= (select O 490) -0.828656))
(assert (= (select O 491) -0.790251))
(assert (= (select O 492) -0.670113))
(assert (= (select O 493) -0.728213))
(assert (= (select O 494) -0.816839))
(assert (= (select O 495) -0.830625))
(assert (= (select O 496) -0.779419))
(assert (= (select O 497) -0.814870))
(assert (= (select O 498) -0.892664))
(assert (= (select O 499) -0.840473))
(assert (= (select O 500) -0.847366))
(assert (= (select O 501) -0.956672))
(assert (= (select O 502) -0.633678))
(assert (= (select O 503) -0.658296))
(assert (= (select O 504) -0.681930))
(assert (= (select O 505) -0.772526))
(assert (= (select O 506) -0.479074))
(assert (= (select O 507) -0.851305))
(assert (= (select O 508) -0.923191))
(assert (= (select O 509) -0.773511))
(assert (= (select O 510) -0.885771))
(assert (= (select O 511) -0.814870))
(assert (= (select O 512) -0.097981))
(assert (= (select O 513) -0.767602))
(assert (= (select O 514) -0.921221))
(assert (= (select O 515) -0.806992))
(assert (= (select O 516) -0.844412))
(assert (= (select O 517) -0.794190))
(assert (= (select O 518) -0.883801))
(assert (= (select O 519) -0.868045))
(assert (= (select O 520) -0.737075))
(assert (= (select O 521) -0.847366))
(assert (= (select O 522) -0.875923))
(assert (= (select O 523) -0.794190))
(assert (= (select O 524) -0.739045))
(assert (= (select O 525) -0.636632))
(assert (= (select O 526) -0.718365))
(assert (= (select O 527) -0.784343))
(assert (= (select O 528) -0.581487))
(assert (= (select O 529) -0.696701))
(assert (= (select O 530) -0.846381))
(assert (= (select O 531) -0.407189))
(assert (= (select O 532) -0.806992))
(assert (= (select O 533) -0.859183))
(assert (= (select O 534) -0.758740))
(assert (= (select O 535) -0.825702))
(assert (= (select O 536) -0.930084))
(assert (= (select O 537) -0.742984))
(assert (= (select O 538) -0.989168))
(assert (= (select O 539) -0.924175))
(assert (= (select O 540) -0.592319))
(assert (= (select O 541) -0.842442))
(assert (= (select O 542) -0.874938))
(assert (= (select O 543) -0.854259))
(assert (= (select O 544) -0.959626))
(assert (= (select O 545) -0.813885))
(assert (= (select O 546) -0.976366))
(assert (= (select O 547) -0.755785))
(assert (= (select O 548) -0.858198))
(assert (= (select O 549) -0.592319))
(assert (= (select O 550) -0.882816))
(assert (= (select O 551) -0.889710))
(assert (= (select O 552) -0.717381))
(assert (= (select O 553) -0.780404))
(assert (= (select O 554) -0.880847))
(assert (= (select O 555) -0.873954))
(assert (= (select O 556) -0.843427))
(assert (= (select O 557) -0.855244))
(assert (= (select O 558) -0.738060))
(assert (= (select O 559) -0.746923))
(assert (= (select O 560) -0.976366))
(assert (= (select O 561) -0.851305))
(assert (= (select O 562) -0.584441))
(assert (= (select O 563) -0.825702))
(assert (= (select O 564) -0.906450))
(assert (= (select O 565) -0.624815))
(assert (= (select O 566) -0.568685))
(assert (= (select O 567) -0.979321))
(assert (= (select O 568) -0.809946))
(assert (= (select O 569) 0.275234))
(assert (= (select O 570) -0.916297))
(assert (= (select O 571) -0.581487))
(assert (= (select O 572) -0.815854))
(assert (= (select O 573) -0.809946))
(assert (= (select O 574) -0.825702))
(assert (= (select O 575) -0.825702))
(assert (= (select O 576) -0.934023))
(assert (= (select O 577) -0.898572))
(assert (= (select O 578) -0.740030))
(assert (= (select O 579) -0.485968))
(assert (= (select O 580) -0.907435))
(assert (= (select O 581) -0.849335))
(assert (= (select O 582) -0.842442))
(assert (= (select O 583) -0.655342))
(assert (= (select O 584) -0.927129))
(assert (= (select O 585) -0.850320))
(assert (= (select O 586) -0.696701))
(assert (= (select O 587) -0.617922))
(assert (= (select O 588) -0.638602))
(assert (= (select O 589) -0.891679))
(assert (= (select O 590) -0.666174))
(assert (= (select O 591) -0.924175))
(assert (= (select O 592) -0.864106))
(assert (= (select O 593) -0.691777))
(assert (= (select O 594) -0.743968))
(assert (= (select O 595) -0.830625))
(assert (= (select O 596) -0.866076))
(assert (= (select O 597) -0.483998))
(assert (= (select O 598) -0.869030))
(assert (= (select O 599) -0.966519))


; =====================
; squared-distance well-distributedness (1D, recursive squared distance)
; column-slice encoding
; =====================

; d^2: Real (squared distance threshold)
(define-fun d2 () Real 4.0)

; 1D squared diff sum
(define-fun-rec squared-diff-sum-1d ((p Real) (x Real) (size Int)) Real
  (ite (< size 0)
       0.0
       (+ (* (- p x) (- p x))
          (squared-diff-sum-1d p x (- size 1)))
  )
)

(assert
  (not
    (exists ((p Real))
      (and
        (>= p -1.0)
        (<= p  1.0)
        (forall ((i Int))
          (=>
            (and (>= i 0) (< i m))
            (> (squared-diff-sum-1d p (select O i) (- n 1)) d2)
          )
        )
      )
    )
  )
)

(check-sat)
